
Gurobi 9.1.2 (win64) logging started Sat Jun 10 18:02:20 2023

Changed value of parameter logfile to resultTrans-Dist-20230610T1802flex_all.log
   Prev:   Default: 
Changed value of parameter MIPFocus to 1
   Prev: 0  Min: 0  Max: 3  Default: 0
No parameters matching 'Parallel' found
Changed value of parameter Threads to 32
   Prev: 0  Min: 0  Max: 1024  Default: 0
Changed value of parameter MIPGap to 0.01
   Prev: 0.0001  Min: 0.0  Max: inf  Default: 0.0001
Changed value of parameter SimplexPricing to 2
   Prev: -1  Min: -1  Max: 3  Default: -1
Changed value of parameter DegenMoves to 0
   Prev: -1  Min: -1  Max: 2000000000  Default: -1
Gurobi Optimizer version 9.1.2 build v9.1.2rc0 (win64)
Thread count: 4 physical cores, 4 logical processors, using up to 32 threads

Warning: Thread count (32) is larger than processor count (4)
         Reduce the value of the Threads parameter to improve performance

Optimize a model with 15070 rows, 11734 columns and 58681 nonzeros
Model fingerprint: 0x089914a1
Variable types: 11700 continuous, 34 integer (6 binary)
Coefficient statistics:
  Matrix range     [1e-06, inf]
  Objective range  [1e+00, 1e+00]
  Bounds range     [1e+00, 1e+00]
  RHS range        [2e-02, 2e+03]
Warning: Model contains large matrix coefficient range
         Consider reformulating model or setting NumericFocus parameter
         to avoid numerical issues.
Presolve removed 9532 rows and 8456 columns
Presolve time: 0.10s
Presolved: 5538 rows, 3278 columns, 22901 nonzeros
Variable types: 3262 continuous, 16 integer (16 binary)

Root relaxation: objective 2.174701e+07, 2427 iterations, 0.04 seconds

    Nodes    |    Current Node    |     Objective Bounds      |     Work
 Expl Unexpl |  Obj  Depth IntInf | Incumbent    BestBd   Gap | It/Node Time

     0     0 2.1747e+07    0    3          - 2.1747e+07      -     -    0s
H    0     0                    2.174741e+07 2.1747e+07  0.00%     -    0s

Explored 1 nodes (2427 simplex iterations) in 0.19 seconds
Thread count was 32 (of 4 available processors)

Solution count 1: 2.17474e+07 

Optimal solution found (tolerance 1.00e-02)
Best objective 2.174740790385e+07, best bound 2.174701181003e+07, gap 0.0018%
